num_servers = 8;
sid = [0, 1, 2, 3, 4, 5, 6, 7];
scpu = [5, 5, 5, 5, 5, 5, 5, 5];
sram = [9, 10, 14, 9, 19, 16, 6, 3];

num_vms = 32;
vjob = [0, 0, 0, 0, 0, 0, 1, 2, 3, 3, 3, 4, 4, 5, 6, 6, 7, 8, 9, 10, 10, 11, 12, 13, 14, 14, 14, 14, 14, 14, 14, 15];
vindex = [0, 1, 2, 3, 4, 5, 0, 0, 0, 1, 2, 0, 1, 0, 0, 1, 0, 0, 0, 0, 1, 0, 0, 0, 0, 1, 2, 3, 4, 5, 6, 0];
vcpu = [1, 1, 1, 1, 1, 1, 1, 1, 1, 1, 1, 1, 1, 1, 1, 1, 1, 1, 1, 1, 1, 1, 1, 1, 1, 1, 1, 1, 1, 1, 1, 1];
vram = [1, 1, 1, 1, 1, 1, 1, 1, 1, 1, 1, 1, 1, 1, 1, 1, 1, 1, 1, 1, 1, 1, 1, 1, 1, 1, 1, 1, 1, 1, 1, 1];
vac = [true, true, true, true, true, true, true, true, true, true, true, true, true, true, true, true, true, true, true, true, true, true, true, true, true, true, true, true, true, true, true, true];
